unsat
(forall ((A (_ BitVec 3))
         (B (_ BitVec 4))
         (C (_ BitVec 16))
         (D (_ BitVec 24))
         (E (_ BitVec 8))
         (F (_ BitVec 1))
         (G (_ BitVec 27))
         (H (_ BitVec 1))
         (I (_ BitVec 5))
         (J (_ BitVec 32))
         (K (_ BitVec 1))
         (L (_ BitVec 8))
         (M (_ BitVec 1))
         (N (_ BitVec 1))
         (O (_ BitVec 32))
         (P (_ BitVec 4))
         (Q (_ BitVec 1))
         (R (_ BitVec 1))
         (S (_ BitVec 1))
         (T (_ BitVec 1))
         (U (_ BitVec 8))
         (V (_ BitVec 8))
         (W (_ BitVec 1))
         (X (_ BitVec 1))
         (Y (_ BitVec 8))
         (Z (_ BitVec 1))
         (A1 (_ BitVec 1)))
  (! (let ((a!1 (or (not (= S #b1))
                    (not (= R #b0))
                    (not (= Q #b1))
                    (= U (bvnot ((_ extract 7 0) O)))))
           (a!2 (or (not ((_ bit2bool 26) G))
                    ((_ bit2bool 8) G)
                    (not (= ((_ extract 4 4) I) #b0))))
           (a!3 (or ((_ bit2bool 0) R)
                    (not (= Q #b1))
                    (not (= ((_ extract 6 6) U) #b1))
                    (= N #b1)))
           (a!4 (or ((_ bit2bool 0) I)
                    (not (= Q #b1))
                    (= N #b0)
                    (= U (bvnot ((_ extract 7 0) O)))))
           (a!5 (or (not (= R #b0))
                    (not ((_ bit2bool 8) G))
                    (not (= ((_ extract 0 0) P) #b1))))
           (a!6 (or ((_ bit2bool 0) R)
                    (not (= Q #b1))
                    (= N #b1)
                    (not (= ((_ extract 7 7) U) #b1))))
           (a!7 (or ((_ bit2bool 0) R)
                    (not (= Q #b1))
                    (not (= ((_ extract 0 0) U) #b1))
                    (= N #b1)))
           (a!8 (or ((_ bit2bool 0) I)
                    ((_ bit2bool 4) I)
                    (not (= ((_ extract 16 16) O) #b0))))
           (a!9 (or (= N #b0)
                    ((_ bit2bool 0) I)
                    (= (bvnot ((_ extract 7 0) O)) #x00)))
           (a!10 (or ((_ bit2bool 0) I)
                     ((_ bit2bool 4) I)
                     (not (= ((_ extract 8 8) O) #b0))))
           (a!11 (or ((_ bit2bool 0) I)
                     ((_ bit2bool 4) I)
                     (= (bvnot ((_ extract 7 0) O)) #x00)))
           (a!12 (or (not ((_ bit2bool 0) T)) (not (= ((_ extract 8 8) G) #b1))))
           (a!13 (or (= ((_ extract 0 0) I) #b1)
                     ((_ bit2bool 26) G)
                     (= ((_ extract 17 17) G) #b0)
                     (= (bvnot ((_ extract 7 0) O)) #x00)))
           (a!14 (or (not ((_ bit2bool 26) G))
                     (not (= ((_ extract 17 17) G) #b0))
                     (not (= R #b1))))
           (a!15 (or (= M #b0)
                     (not (= ((_ extract 17 17) G) #b0))
                     (not (= R #b1))))
           (a!16 (or ((_ bit2bool 0) A)
                     ((_ bit2bool 3) P)
                     (= ((_ extract 1 1) I) #b1)
                     (not (= ((_ extract 7 0) G) #x00))))
           (a!17 (or ((_ bit2bool 4) I) (not (= ((_ extract 2 0) I) #b110))))
           (a!18 (or (not (= ((_ extract 8 8) G) #b1))
                     (not (= ((_ extract 3 1) I) #b110)))))
     (let ((a!19 (and (or (not (= N #b0))
                          ((_ bit2bool 3) I)
                          (not (= Q #b1))
                          (= ((_ extract 17 17) G) #b0))
                      (or (not ((_ bit2bool 4) I)) (not (= F #b1)))
                      (or (= ((_ extract 17 17) G) #b0) (not (= F #b1)))
                      (or (not (= S #b1))
                          (not (= R #b0))
                          (not (= Q #b1))
                          (not ((_ bit2bool 4) I)))
                      a!1
                      (or (not ((_ bit2bool 26) G))
                          ((_ bit2bool 8) G)
                          (not (= N #b1)))
                      (or ((_ bit2bool 8) G) (not ((_ bit2bool 0) I)))
                      (or ((_ bit2bool 0) I) (not ((_ bit2bool 8) G)))
                      (or (= ((_ extract 1 1) I) #b1)
                          (= ((_ extract 17 17) G) #b0))
                      (or ((_ bit2bool 2) I) (not ((_ bit2bool 26) G)))
                      (or ((_ bit2bool 3) I) (not (= M #b1)))
                      (or (not (= R #b0))
                          (not ((_ bit2bool 2) U))
                          (not (= Q #b1))
                          (= N #b1))
                      a!2
                      a!3
                      a!4
                      a!5
                      a!6
                      a!7
                      (or ((_ bit2bool 0) R)
                          (not (= Q #b1))
                          (not ((_ bit2bool 5) U))
                          (= N #b1))
                      (or (not (= Q #b1))
                          (not ((_ bit2bool 8) G))
                          ((_ bit2bool 0) N))
                      (or (not (= M #b1))
                          (not (= T #b1))
                          (not ((_ bit2bool 2) U)))
                      (or ((_ bit2bool 0) I)
                          (= N #b0)
                          (= ((_ extract 17 17) G) #b0))
                      (or (not ((_ bit2bool 17) G))
                          (not ((_ bit2bool 0) T))
                          (not (= R #b1)))
                      (or ((_ bit2bool 2) I)
                          (not ((_ bit2bool 2) U))
                          (not (= M #b1)))
                      a!8
                      a!9
                      a!10
                      a!11
                      a!12
                      a!13
                      (or (not (= R #b0))
                          (not (= Q #b1))
                          (not ((_ bit2bool 4) U))
                          (= N #b1))
                      (or (not (= M #b1))
                          ((_ bit2bool 2) I)
                          (= ((_ extract 17 17) G) #b0))
                      (or (not ((_ bit2bool 8) G))
                          (not (= R #b0))
                          (not (= S #b1)))
                      a!14
                      (or (not (= S #b1))
                          (not (= R #b0))
                          ((_ bit2bool 3) I)
                          (not ((_ bit2bool 17) G)))
                      (or (not ((_ bit2bool 26) G))
                          ((_ bit2bool 8) G)
                          (not (= R #b1)))
                      a!15
                      (or (not (= S #b1))
                          (not ((_ bit2bool 26) G))
                          (not (= R #b0))
                          ((_ bit2bool 3) I))
                      a!16
                      a!17
                      (or ((_ bit2bool 2) I)
                          (not ((_ bit2bool 17) G))
                          (not ((_ bit2bool 4) I))
                          (not ((_ bit2bool 3) I)))
                      a!18
                      (or (not ((_ bit2bool 26) G))
                          ((_ bit2bool 3) I)
                          (not (= Q #b1))
                          ((_ bit2bool 0) N)
                          (not ((_ bit2bool 4) I)))
                      (or ((_ bit2bool 3) P) ((_ bit2bool 8) G))
                      (or (not (= R #b0))
                          ((_ bit2bool 17) G)
                          (not ((_ bit2bool 8) G))))))
       (= (INV!slice!1 A B C D E F G H I J K L M N O P Q R S T U V W X Y Z A1)
          a!19)))
     :weight 0))
